p tw 41 272
0 1
0 2
0 3
0 4
0 7
0 25
0 26
0 27
0 28
0 24
0 31
0 34
0 39
0 35
0 20
1 2
1 3
1 4
1 5
1 6
1 7
1 25
1 26
1 27
1 28
1 13
1 15
1 17
1 30
2 3
2 4
2 13
2 35
2 36
2 15
2 26
2 39
3 4
3 13
3 35
3 36
3 6
3 22
3 24
3 20
3 30
3 28
3 34
3 17
4 5
4 6
4 7
4 24
4 31
4 22
5 6
5 7
5 25
5 37
5 38
5 17
5 29
5 15
6 7
6 22
6 23
6 29
6 30
6 17
6 37
6 24
6 28
6 33
6 13
7 25
7 26
7 27
7 28
7 24
7 31
7 37
7 38
7 23
7 33
8 9
8 10
8 11
8 12
8 16
8 18
8 19
8 27
8 28
8 33
8 34
8 25
8 38
8 37
8 17
9 10
9 11
9 12
9 20
9 23
9 28
9 30
9 32
9 19
9 27
9 33
9 34
9 21
9 40
10 11
10 12
10 21
10 23
10 33
10 37
10 38
10 29
11 12
11 14
11 17
11 29
11 30
11 20
11 23
11 28
11 32
11 16
11 37
11 25
12 16
12 18
12 19
12 14
12 32
12 40
13 14
13 15
13 16
13 17
13 35
13 36
13 26
13 19
13 28
13 32
13 30
14 15
14 16
14 17
14 29
14 30
14 32
14 36
15 16
15 17
15 18
15 25
15 26
16 17
16 18
16 19
16 25
16 26
16 28
16 32
16 35
16 37
17 29
17 30
17 37
17 25
17 28
18 19
18 25
18 26
18 27
18 38
18 39
19 27
19 28
19 33
19 34
19 35
19 39
19 40
19 26
19 32
20 21
20 22
20 23
20 24
20 28
20 30
20 32
20 36
20 34
20 35
20 40
21 22
21 23
21 24
21 31
21 33
21 34
21 40
22 23
22 24
22 29
22 30
22 36
23 24
23 28
23 30
23 32
23 29
23 33
23 37
24 31
24 33
24 34
24 28
24 37
24 35
25 26
25 27
25 28
25 37
25 38
26 27
26 28
26 32
26 35
26 39
27 28
27 33
27 34
27 38
27 31
27 39
28 30
28 32
28 33
28 34
28 37
28 35
29 30
29 37
30 32
30 36
31 33
31 34
31 39
31 38
32 35
32 36
32 40
33 34
33 37
33 38
34 35
34 39
34 40
35 36
35 39
35 40
36 40
37 38
39 40
